
  26    0


   0  12 2 3 4 5 6 7 11 12 22 23 24 25 
   1   6 21 17 16 15 14 10 
  10   4 20 19 14 13 
   1   3 17 15 9 
   4   3 18 14 13 
   3   2 16 14 
   7   1 8 
   2   1 13 
   2   1 13 
   1   1 13 
   2   1 15 
   3   1 13 
   6   1 26
  10   1 26
   3   1 26
   5   1 26
   8   1 26
   1   1 26
   2   1 26
   2   1 26
   8   1 26
   3   1 26
   5   1 26
   8   1 26
   3   1 26
   0   0 
